NAME 
OBJSENSE MAX
ROWS
 N  OBJ
 L  packing[0]
 L  packing[1]
 L  packing[2]
 L  packing[3]
 L  packing[4]
 L  packing[5]
 L  packing[6]
 L  packing[7]
 L  packing[8]
 L  packing[9]
 L  packing[10]
 L  packing[11]
 L  packing[12]
 L  packing[13]
 L  packing[14]
 L  packing[15]
 L  packing[16]
 L  packing[17]
 L  packing[18]
 L  packing[19]
 L  packing[20]
 L  packing[21]
 L  packing[22]
 L  packing[23]
 L  packing[24]
 L  packing[25]
 L  packing[26]
 L  packing[27]
 L  packing[28]
 L  packing[29]
 L  packing[30]
 L  packing[31]
 L  packing[32]
 L  packing[33]
 L  packing[34]
 L  packing[35]
 L  packing[36]
 L  packing[37]
 L  packing[38]
 L  packing[39]
 L  packing[40]
 L  packing[41]
 L  packing[42]
 L  packing[43]
 L  packing[44]
 L  packing[45]
 L  packing[46]
 L  packing[47]
 L  packing[48]
 L  packing[49]
 L  R54     
COLUMNS
    MARKER    'MARKER'                 'INTORG'
    x[1]      OBJ       46
    x[1]      packing[0]  154
    x[1]      packing[1]  168
    x[1]      packing[2]  2
    x[1]      packing[3]  101
    x[1]      packing[5]  142
    x[1]      packing[7]  44
    x[1]      packing[9]  92
    x[1]      packing[10]  27
    x[1]      packing[11]  70
    x[1]      packing[13]  12
    x[1]      packing[14]  130
    x[1]      packing[15]  30
    x[1]      packing[16]  67
    x[1]      packing[18]  48
    x[1]      packing[19]  160
    x[1]      packing[20]  128
    x[1]      packing[21]  39
    x[1]      packing[22]  171
    x[1]      packing[23]  195
    x[1]      packing[24]  141
    x[1]      packing[25]  112
    x[1]      packing[26]  151
    x[1]      packing[27]  184
    x[1]      packing[28]  125
    x[1]      packing[29]  100
    x[1]      packing[32]  134
    x[1]      packing[33]  89
    x[1]      packing[36]  107
    x[1]      packing[37]  15
    x[1]      packing[38]  169
    x[1]      packing[40]  42
    x[1]      packing[42]  184
    x[1]      packing[43]  127
    x[1]      packing[44]  58
    x[1]      packing[45]  58
    x[1]      packing[46]  157
    x[1]      packing[47]  148
    x[1]      packing[48]  169
    x[2]      OBJ       6
    x[2]      packing[0]  67
    x[2]      packing[1]  154
    x[2]      packing[2]  90
    x[2]      packing[3]  46
    x[2]      packing[4]  35
    x[2]      packing[6]  158
    x[2]      packing[8]  139
    x[2]      packing[9]  124
    x[2]      packing[10]  5
    x[2]      packing[13]  7
    x[2]      packing[14]  16
    x[2]      packing[15]  21
    x[2]      packing[16]  29
    x[2]      packing[17]  99
    x[2]      packing[19]  26
    x[2]      packing[22]  71
    x[2]      packing[23]  69
    x[2]      packing[24]  72
    x[2]      packing[25]  78
    x[2]      packing[26]  75
    x[2]      packing[27]  79
    x[2]      packing[28]  99
    x[2]      packing[30]  168
    x[2]      packing[31]  177
    x[2]      packing[35]  135
    x[2]      packing[36]  72
    x[2]      packing[38]  44
    x[2]      packing[40]  37
    x[2]      packing[41]  40
    x[2]      packing[43]  135
    x[2]      packing[44]  135
    x[2]      packing[45]  161
    x[2]      packing[46]  54
    x[2]      packing[47]  114
    x[2]      packing[48]  42
    x[2]      packing[49]  125
    x[3]      OBJ       165
    x[3]      packing[0]  160
    x[3]      packing[1]  122
    x[3]      packing[2]  106
    x[3]      packing[3]  170
    x[3]      packing[4]  70
    x[3]      packing[5]  85
    x[3]      packing[8]  11
    x[3]      packing[9]  118
    x[3]      packing[10]  147
    x[3]      packing[12]  105
    x[3]      packing[14]  47
    x[3]      packing[16]  10
    x[3]      packing[17]  83
    x[3]      packing[18]  52
    x[3]      packing[19]  173
    x[3]      packing[22]  169
    x[3]      packing[23]  87
    x[3]      packing[25]  20
    x[3]      packing[26]  111
    x[3]      packing[27]  151
    x[3]      packing[28]  113
    x[3]      packing[29]  197
    x[3]      packing[30]  53
    x[3]      packing[32]  120
    x[3]      packing[34]  142
    x[3]      packing[35]  167
    x[3]      packing[36]  128
    x[3]      packing[37]  191
    x[3]      packing[38]  180
    x[3]      packing[39]  117
    x[3]      packing[40]  142
    x[3]      packing[41]  189
    x[3]      packing[42]  47
    x[3]      packing[45]  71
    x[3]      packing[47]  78
    x[3]      packing[49]  27
    x[3]      R54       1
    x[4]      OBJ       73
    x[4]      packing[1]  121
    x[4]      packing[2]  55
    x[4]      packing[3]  14
    x[4]      packing[4]  100
    x[4]      packing[5]  66
    x[4]      packing[6]  88
    x[4]      packing[7]  88
    x[4]      packing[8]  31
    x[4]      packing[9]  50
    x[4]      packing[10]  87
    x[4]      packing[11]  74
    x[4]      packing[12]  142
    x[4]      packing[13]  97
    x[4]      packing[14]  114
    x[4]      packing[15]  22
    x[4]      packing[16]  83
    x[4]      packing[18]  50
    x[4]      packing[20]  27
    x[4]      packing[21]  154
    x[4]      packing[22]  41
    x[4]      packing[23]  98
    x[4]      packing[25]  123
    x[4]      packing[26]  41
    x[4]      packing[27]  180
    x[4]      packing[29]  197
    x[4]      packing[30]  111
    x[4]      packing[31]  74
    x[4]      packing[32]  19
    x[4]      packing[33]  188
    x[4]      packing[35]  85
    x[4]      packing[37]  131
    x[4]      packing[38]  137
    x[4]      packing[39]  198
    x[4]      packing[40]  85
    x[4]      packing[41]  100
    x[4]      packing[42]  174
    x[4]      packing[43]  36
    x[4]      packing[44]  32
    x[4]      packing[45]  132
    x[4]      packing[46]  19
    x[4]      packing[47]  119
    x[4]      packing[48]  7
    x[4]      packing[49]  62
    x[5]      OBJ       108
    x[5]      packing[0]  98
    x[5]      packing[2]  179
    x[5]      packing[3]  106
    x[5]      packing[4]  75
    x[5]      packing[5]  63
    x[5]      packing[7]  120
    x[5]      packing[8]  34
    x[5]      packing[11]  171
    x[5]      packing[13]  153
    x[5]      packing[14]  29
    x[5]      packing[16]  133
    x[5]      packing[17]  83
    x[5]      packing[19]  97
    x[5]      packing[20]  110
    x[5]      packing[21]  114
    x[5]      packing[23]  92
    x[5]      packing[24]  91
    x[5]      packing[25]  157
    x[5]      packing[26]  5
    x[5]      packing[29]  114
    x[5]      packing[30]  147
    x[5]      packing[32]  139
    x[5]      packing[34]  108
    x[5]      packing[35]  84
    x[5]      packing[36]  37
    x[5]      packing[37]  66
    x[5]      packing[39]  141
    x[5]      packing[40]  21
    x[5]      packing[41]  98
    x[5]      packing[42]  181
    x[5]      packing[43]  115
    x[5]      packing[44]  23
    x[5]      packing[46]  3
    x[5]      packing[47]  67
    x[5]      packing[48]  28
    x[5]      packing[49]  3
    x[6]      OBJ       60
    x[6]      packing[0]  149
    x[6]      packing[1]  43
    x[6]      packing[2]  5
    x[6]      packing[3]  117
    x[6]      packing[4]  50
    x[6]      packing[5]  78
    x[6]      packing[6]  198
    x[6]      packing[7]  178
    x[6]      packing[8]  155
    x[6]      packing[9]  12
    x[6]      packing[10]  179
    x[6]      packing[11]  28
    x[6]      packing[12]  72
    x[6]      packing[13]  129
    x[6]      packing[14]  31
    x[6]      packing[16]  32
    x[6]      packing[17]  54
    x[6]      packing[18]  29
    x[6]      packing[19]  26
    x[6]      packing[20]  144
    x[6]      packing[21]  198
    x[6]      packing[22]  92
    x[6]      packing[26]  147
    x[6]      packing[27]  21
    x[6]      packing[28]  179
    x[6]      packing[30]  55
    x[6]      packing[31]  150
    x[6]      packing[32]  112
    x[6]      packing[33]  74
    x[6]      packing[35]  182
    x[6]      packing[36]  169
    x[6]      packing[38]  75
    x[6]      packing[39]  19
    x[6]      packing[41]  107
    x[6]      packing[42]  48
    x[6]      packing[44]  62
    x[6]      packing[45]  122
    x[6]      packing[46]  5
    x[6]      packing[47]  23
    x[6]      packing[48]  20
    x[6]      packing[49]  118
    x[6]      R54       1
    x[7]      OBJ       161
    x[7]      packing[1]  89
    x[7]      packing[2]  61
    x[7]      packing[3]  142
    x[7]      packing[7]  102
    x[7]      packing[8]  158
    x[7]      packing[11]  134
    x[7]      packing[12]  14
    x[7]      packing[13]  28
    x[7]      packing[14]  47
    x[7]      packing[15]  181
    x[7]      packing[16]  105
    x[7]      packing[17]  2
    x[7]      packing[18]  175
    x[7]      packing[19]  10
    x[7]      packing[20]  41
    x[7]      packing[21]  160
    x[7]      packing[22]  94
    x[7]      packing[23]  7
    x[7]      packing[25]  33
    x[7]      packing[27]  16
    x[7]      packing[28]  133
    x[7]      packing[29]  145
    x[7]      packing[30]  84
    x[7]      packing[31]  26
    x[7]      packing[33]  34
    x[7]      packing[35]  187
    x[7]      packing[37]  94
    x[7]      packing[38]  4
    x[7]      packing[40]  86
    x[7]      packing[41]  5
    x[7]      packing[42]  95
    x[7]      packing[44]  106
    x[7]      packing[45]  44
    x[7]      packing[46]  178
    x[7]      packing[47]  147
    x[7]      packing[49]  103
    x[8]      OBJ       167
    x[8]      packing[0]  71
    x[8]      packing[1]  110
    x[8]      packing[2]  135
    x[8]      packing[3]  110
    x[8]      packing[4]  143
    x[8]      packing[7]  3
    x[8]      packing[8]  169
    x[8]      packing[9]  130
    x[8]      packing[10]  115
    x[8]      packing[13]  176
    x[8]      packing[14]  77
    x[8]      packing[16]  50
    x[8]      packing[18]  39
    x[8]      packing[20]  193
    x[8]      packing[21]  80
    x[8]      packing[22]  97
    x[8]      packing[23]  130
    x[8]      packing[26]  111
    x[8]      packing[27]  50
    x[8]      packing[30]  16
    x[8]      packing[31]  144
    x[8]      packing[34]  184
    x[8]      packing[36]  35
    x[8]      packing[37]  161
    x[8]      packing[39]  154
    x[8]      packing[40]  93
    x[8]      packing[41]  76
    x[8]      packing[43]  184
    x[8]      packing[44]  53
    x[8]      packing[45]  163
    x[8]      packing[46]  106
    x[8]      packing[47]  24
    x[8]      packing[48]  24
    x[9]      OBJ       94
    x[9]      packing[1]  125
    x[9]      packing[3]  165
    x[9]      packing[5]  63
    x[9]      packing[8]  46
    x[9]      packing[9]  105
    x[9]      packing[12]  18
    x[9]      packing[13]  99
    x[9]      packing[14]  156
    x[9]      packing[15]  83
    x[9]      packing[16]  162
    x[9]      packing[17]  140
    x[9]      packing[18]  159
    x[9]      packing[19]  61
    x[9]      packing[20]  177
    x[9]      packing[22]  136
    x[9]      packing[23]  47
    x[9]      packing[24]  165
    x[9]      packing[25]  29
    x[9]      packing[26]  167
    x[9]      packing[27]  128
    x[9]      packing[28]  25
    x[9]      packing[29]  152
    x[9]      packing[31]  46
    x[9]      packing[32]  76
    x[9]      packing[33]  16
    x[9]      packing[34]  51
    x[9]      packing[36]  38
    x[9]      packing[37]  43
    x[9]      packing[40]  38
    x[9]      packing[41]  165
    x[9]      packing[42]  110
    x[9]      packing[43]  143
    x[9]      packing[44]  28
    x[9]      packing[45]  175
    x[9]      packing[47]  180
    x[9]      packing[48]  159
    x[9]      packing[49]  187
    x[10]     OBJ       61
    x[10]     packing[0]  137
    x[10]     packing[2]  198
    x[10]     packing[3]  45
    x[10]     packing[4]  122
    x[10]     packing[5]  118
    x[10]     packing[7]  182
    x[10]     packing[8]  32
    x[10]     packing[9]  26
    x[10]     packing[10]  160
    x[10]     packing[11]  57
    x[10]     packing[12]  89
    x[10]     packing[13]  18
    x[10]     packing[14]  61
    x[10]     packing[16]  167
    x[10]     packing[17]  6
    x[10]     packing[18]  84
    x[10]     packing[19]  8
    x[10]     packing[20]  28
    x[10]     packing[22]  181
    x[10]     packing[24]  106
    x[10]     packing[28]  182
    x[10]     packing[29]  181
    x[10]     packing[31]  50
    x[10]     packing[33]  69
    x[10]     packing[34]  51
    x[10]     packing[35]  38
    x[10]     packing[37]  62
    x[10]     packing[38]  191
    x[10]     packing[39]  138
    x[10]     packing[40]  191
    x[10]     packing[41]  28
    x[10]     packing[42]  143
    x[10]     packing[43]  159
    x[10]     packing[44]  52
    x[10]     packing[45]  193
    x[10]     packing[46]  7
    x[10]     packing[47]  184
    x[10]     packing[48]  127
    x[11]     OBJ       104
    x[11]     packing[2]  180
    x[11]     packing[3]  159
    x[11]     packing[5]  12
    x[11]     packing[6]  169
    x[11]     packing[7]  42
    x[11]     packing[8]  93
    x[11]     packing[10]  152
    x[11]     packing[11]  54
    x[11]     packing[12]  12
    x[11]     packing[13]  179
    x[11]     packing[14]  37
    x[11]     packing[16]  181
    x[11]     packing[19]  63
    x[11]     packing[20]  186
    x[11]     packing[22]  173
    x[11]     packing[23]  11
    x[11]     packing[25]  98
    x[11]     packing[26]  92
    x[11]     packing[27]  40
    x[11]     packing[28]  97
    x[11]     packing[29]  38
    x[11]     packing[33]  45
    x[11]     packing[34]  189
    x[11]     packing[35]  150
    x[11]     packing[36]  199
    x[11]     packing[37]  39
    x[11]     packing[38]  166
    x[11]     packing[39]  9
    x[11]     packing[40]  187
    x[11]     packing[41]  119
    x[11]     packing[42]  142
    x[11]     packing[43]  12
    x[11]     packing[44]  41
    x[11]     packing[45]  50
    x[11]     packing[46]  162
    x[11]     packing[48]  161
    x[11]     packing[49]  98
    x[12]     OBJ       86
    x[12]     packing[0]  157
    x[12]     packing[1]  13
    x[12]     packing[2]  127
    x[12]     packing[3]  126
    x[12]     packing[4]  83
    x[12]     packing[5]  11
    x[12]     packing[6]  61
    x[12]     packing[7]  166
    x[12]     packing[8]  42
    x[12]     packing[12]  29
    x[12]     packing[15]  94
    x[12]     packing[16]  55
    x[12]     packing[17]  162
    x[12]     packing[18]  145
    x[12]     packing[19]  197
    x[12]     packing[22]  131
    x[12]     packing[23]  94
    x[12]     packing[24]  25
    x[12]     packing[25]  185
    x[12]     packing[26]  171
    x[12]     packing[28]  198
    x[12]     packing[31]  32
    x[12]     packing[32]  33
    x[12]     packing[33]  101
    x[12]     packing[34]  189
    x[12]     packing[35]  177
    x[12]     packing[36]  78
    x[12]     packing[38]  135
    x[12]     packing[39]  67
    x[12]     packing[40]  149
    x[12]     packing[41]  132
    x[12]     packing[42]  4
    x[12]     packing[43]  134
    x[12]     packing[44]  181
    x[12]     packing[45]  79
    x[12]     packing[46]  167
    x[12]     packing[47]  198
    x[12]     packing[48]  5
    x[12]     packing[49]  99
    x[13]     OBJ       34
    x[13]     packing[0]  193
    x[13]     packing[1]  42
    x[13]     packing[2]  76
    x[13]     packing[3]  55
    x[13]     packing[4]  191
    x[13]     packing[5]  150
    x[13]     packing[6]  109
    x[13]     packing[7]  65
    x[13]     packing[8]  191
    x[13]     packing[9]  139
    x[13]     packing[10]  67
    x[13]     packing[11]  50
    x[13]     packing[12]  192
    x[13]     packing[13]  15
    x[13]     packing[15]  28
    x[13]     packing[17]  17
    x[13]     packing[18]  145
    x[13]     packing[19]  161
    x[13]     packing[21]  47
    x[13]     packing[22]  198
    x[13]     packing[23]  102
    x[13]     packing[25]  77
    x[13]     packing[26]  56
    x[13]     packing[28]  166
    x[13]     packing[29]  199
    x[13]     packing[30]  51
    x[13]     packing[31]  181
    x[13]     packing[32]  134
    x[13]     packing[34]  121
    x[13]     packing[35]  157
    x[13]     packing[36]  161
    x[13]     packing[37]  110
    x[13]     packing[38]  6
    x[13]     packing[39]  6
    x[13]     packing[40]  36
    x[13]     packing[41]  191
    x[13]     packing[43]  178
    x[13]     packing[44]  32
    x[13]     packing[45]  55
    x[13]     packing[46]  125
    x[13]     packing[47]  84
    x[13]     packing[48]  28
    x[13]     packing[49]  29
    x[14]     OBJ       175
    x[14]     packing[0]  12
    x[14]     packing[1]  177
    x[14]     packing[2]  149
    x[14]     packing[3]  159
    x[14]     packing[4]  118
    x[14]     packing[6]  85
    x[14]     packing[7]  63
    x[14]     packing[8]  169
    x[14]     packing[9]  114
    x[14]     packing[10]  39
    x[14]     packing[11]  127
    x[14]     packing[13]  177
    x[14]     packing[14]  117
    x[14]     packing[15]  12
    x[14]     packing[16]  52
    x[14]     packing[18]  6
    x[14]     packing[19]  194
    x[14]     packing[23]  59
    x[14]     packing[24]  129
    x[14]     packing[25]  46
    x[14]     packing[26]  27
    x[14]     packing[27]  90
    x[14]     packing[28]  93
    x[14]     packing[30]  167
    x[14]     packing[31]  82
    x[14]     packing[32]  104
    x[14]     packing[33]  56
    x[14]     packing[34]  84
    x[14]     packing[35]  136
    x[14]     packing[36]  69
    x[14]     packing[37]  29
    x[14]     packing[38]  157
    x[14]     packing[39]  128
    x[14]     packing[43]  104
    x[14]     packing[44]  38
    x[14]     packing[45]  89
    x[14]     packing[46]  9
    x[14]     packing[47]  24
    x[14]     packing[48]  88
    x[14]     packing[49]  34
    x[15]     OBJ       150
    x[15]     packing[1]  27
    x[15]     packing[2]  61
    x[15]     packing[3]  113
    x[15]     packing[4]  129
    x[15]     packing[5]  183
    x[15]     packing[6]  188
    x[15]     packing[7]  111
    x[15]     packing[8]  136
    x[15]     packing[9]  148
    x[15]     packing[11]  11
    x[15]     packing[13]  119
    x[15]     packing[14]  37
    x[15]     packing[15]  168
    x[15]     packing[16]  95
    x[15]     packing[17]  41
    x[15]     packing[19]  183
    x[15]     packing[20]  174
    x[15]     packing[22]  103
    x[15]     packing[23]  173
    x[15]     packing[25]  25
    x[15]     packing[26]  119
    x[15]     packing[27]  56
    x[15]     packing[28]  117
    x[15]     packing[29]  118
    x[15]     packing[30]  184
    x[15]     packing[32]  187
    x[15]     packing[33]  101
    x[15]     packing[35]  86
    x[15]     packing[37]  93
    x[15]     packing[38]  83
    x[15]     packing[40]  5
    x[15]     packing[42]  114
    x[15]     packing[43]  41
    x[15]     packing[44]  149
    x[15]     packing[45]  95
    x[15]     packing[46]  196
    x[15]     packing[47]  111
    x[15]     packing[49]  183
    x[16]     OBJ       115
    x[16]     packing[0]  137
    x[16]     packing[2]  33
    x[16]     packing[3]  22
    x[16]     packing[6]  194
    x[16]     packing[8]  24
    x[16]     packing[9]  66
    x[16]     packing[10]  26
    x[16]     packing[12]  54
    x[16]     packing[14]  11
    x[16]     packing[16]  121
    x[16]     packing[17]  5
    x[16]     packing[18]  151
    x[16]     packing[19]  60
    x[16]     packing[20]  194
    x[16]     packing[21]  75
    x[16]     packing[22]  25
    x[16]     packing[23]  117
    x[16]     packing[24]  130
    x[16]     packing[25]  25
    x[16]     packing[26]  55
    x[16]     packing[27]  8
    x[16]     packing[29]  21
    x[16]     packing[31]  128
    x[16]     packing[35]  155
    x[16]     packing[36]  63
    x[16]     packing[37]  108
    x[16]     packing[39]  117
    x[16]     packing[42]  124
    x[16]     packing[44]  154
    x[16]     packing[45]  120
    x[16]     packing[46]  187
    x[16]     packing[47]  85
    x[16]     packing[48]  164
    x[16]     packing[49]  21
    x[16]     R54       1
    x[17]     OBJ       187
    x[17]     packing[0]  44
    x[17]     packing[1]  92
    x[17]     packing[2]  61
    x[17]     packing[3]  75
    x[17]     packing[4]  95
    x[17]     packing[5]  174
    x[17]     packing[6]  116
    x[17]     packing[7]  141
    x[17]     packing[9]  95
    x[17]     packing[10]  149
    x[17]     packing[12]  172
    x[17]     packing[13]  17
    x[17]     packing[14]  55
    x[17]     packing[15]  73
    x[17]     packing[16]  54
    x[17]     packing[17]  2
    x[17]     packing[18]  116
    x[17]     packing[19]  70
    x[17]     packing[20]  160
    x[17]     packing[21]  17
    x[17]     packing[22]  61
    x[17]     packing[24]  147
    x[17]     packing[26]  53
    x[17]     packing[27]  1
    x[17]     packing[28]  60
    x[17]     packing[29]  174
    x[17]     packing[31]  108
    x[17]     packing[32]  34
    x[17]     packing[33]  146
    x[17]     packing[34]  147
    x[17]     packing[35]  32
    x[17]     packing[36]  190
    x[17]     packing[39]  35
    x[17]     packing[40]  152
    x[17]     packing[41]  179
    x[17]     packing[42]  178
    x[17]     packing[44]  1
    x[17]     packing[45]  141
    x[17]     packing[46]  161
    x[17]     packing[47]  137
    x[17]     packing[48]  167
    x[17]     packing[49]  14
    x[17]     R54       1
    x[18]     OBJ       26
    x[18]     packing[1]  168
    x[18]     packing[4]  125
    x[18]     packing[5]  37
    x[18]     packing[6]  58
    x[18]     packing[7]  123
    x[18]     packing[8]  56
    x[18]     packing[9]  106
    x[18]     packing[10]  45
    x[18]     packing[12]  19
    x[18]     packing[13]  52
    x[18]     packing[14]  17
    x[18]     packing[17]  8
    x[18]     packing[18]  69
    x[18]     packing[19]  5
    x[18]     packing[21]  61
    x[18]     packing[22]  126
    x[18]     packing[23]  103
    x[18]     packing[24]  103
    x[18]     packing[26]  65
    x[18]     packing[27]  13
    x[18]     packing[28]  153
    x[18]     packing[29]  3
    x[18]     packing[31]  160
    x[18]     packing[32]  177
    x[18]     packing[33]  162
    x[18]     packing[34]  145
    x[18]     packing[35]  41
    x[18]     packing[36]  78
    x[18]     packing[37]  110
    x[18]     packing[38]  80
    x[18]     packing[39]  4
    x[18]     packing[40]  57
    x[18]     packing[41]  67
    x[18]     packing[43]  196
    x[18]     packing[44]  113
    x[18]     packing[45]  19
    x[18]     packing[47]  38
    x[18]     packing[48]  19
    x[18]     packing[49]  75
    x[19]     OBJ       164
    x[19]     packing[1]  130
    x[19]     packing[2]  56
    x[19]     packing[3]  72
    x[19]     packing[4]  129
    x[19]     packing[5]  72
    x[19]     packing[6]  136
    x[19]     packing[7]  53
    x[19]     packing[8]  6
    x[19]     packing[9]  124
    x[19]     packing[10]  122
    x[19]     packing[11]  125
    x[19]     packing[12]  175
    x[19]     packing[13]  111
    x[19]     packing[15]  117
    x[19]     packing[16]  90
    x[19]     packing[17]  142
    x[19]     packing[18]  154
    x[19]     packing[19]  50
    x[19]     packing[20]  78
    x[19]     packing[21]  197
    x[19]     packing[22]  153
    x[19]     packing[23]  75
    x[19]     packing[24]  136
    x[19]     packing[25]  38
    x[19]     packing[26]  40
    x[19]     packing[29]  84
    x[19]     packing[30]  173
    x[19]     packing[31]  185
    x[19]     packing[32]  92
    x[19]     packing[33]  105
    x[19]     packing[34]  192
    x[19]     packing[35]  112
    x[19]     packing[36]  28
    x[19]     packing[37]  79
    x[19]     packing[38]  48
    x[19]     packing[39]  159
    x[19]     packing[41]  4
    x[19]     packing[42]  110
    x[19]     packing[43]  98
    x[19]     packing[44]  195
    x[19]     packing[46]  110
    x[19]     packing[47]  185
    x[19]     packing[48]  181
    x[19]     packing[49]  130
    x[19]     R54       1
    x[20]     OBJ       96
    x[20]     packing[0]  152
    x[20]     packing[1]  89
    x[20]     packing[2]  62
    x[20]     packing[4]  109
    x[20]     packing[5]  187
    x[20]     packing[6]  151
    x[20]     packing[8]  126
    x[20]     packing[10]  188
    x[20]     packing[11]  82
    x[20]     packing[12]  52
    x[20]     packing[15]  26
    x[20]     packing[16]  167
    x[20]     packing[17]  89
    x[20]     packing[19]  54
    x[20]     packing[20]  83
    x[20]     packing[21]  118
    x[20]     packing[23]  60
    x[20]     packing[26]  34
    x[20]     packing[27]  188
    x[20]     packing[28]  77
    x[20]     packing[29]  21
    x[20]     packing[30]  20
    x[20]     packing[31]  50
    x[20]     packing[33]  15
    x[20]     packing[34]  30
    x[20]     packing[35]  64
    x[20]     packing[36]  24
    x[20]     packing[37]  117
    x[20]     packing[38]  110
    x[20]     packing[39]  149
    x[20]     packing[40]  128
    x[20]     packing[41]  190
    x[20]     packing[42]  157
    x[20]     packing[43]  23
    x[20]     packing[44]  170
    x[20]     packing[45]  23
    x[20]     packing[46]  50
    x[20]     packing[47]  64
    x[20]     packing[48]  135
    MARKER    'MARKER'                 'INTEND'
RHS
    RHS1      packing[0]  766
    RHS1      packing[1]  835
    RHS1      packing[2]  818
    RHS1      packing[3]  899
    RHS1      packing[4]  787
    RHS1      packing[5]  721
    RHS1      packing[6]  856
    RHS1      packing[7]  741
    RHS1      packing[8]  809
    RHS1      packing[9]  725
    RHS1      packing[10]  754
    RHS1      packing[11]  492
    RHS1      packing[12]  573
    RHS1      packing[13]  695
    RHS1      packing[14]  491
    RHS1      packing[15]  428
    RHS1      packing[16]  827
    RHS1      packing[17]  467
    RHS1      packing[18]  711
    RHS1      packing[19]  799
    RHS1      packing[20]  862
    RHS1      packing[21]  630
    RHS1      packing[22]  1011
    RHS1      packing[23]  760
    RHS1      packing[24]  623
    RHS1      packing[25]  523
    RHS1      packing[26]  760
    RHS1      packing[27]  603
    RHS1      packing[28]  909
    RHS1      packing[29]  872
    RHS1      packing[30]  615
    RHS1      packing[31]  797
    RHS1      packing[32]  681
    RHS1      packing[33]  601
    RHS1      packing[34]  817
    RHS1      packing[35]  994
    RHS1      packing[36]  738
    RHS1      packing[37]  724
    RHS1      packing[38]  793
    RHS1      packing[39]  721
    RHS1      packing[40]  725
    RHS1      packing[41]  845
    RHS1      packing[42]  906
    RHS1      packing[43]  843
    RHS1      packing[44]  812
    RHS1      packing[45]  895
    RHS1      packing[46]  848
    RHS1      packing[47]  1005
    RHS1      packing[48]  762
    RHS1      packing[49]  654
    RHS1      R54       4
BOUNDS
 BV BND1      x[1]    
 BV BND1      x[2]    
 BV BND1      x[3]    
 BV BND1      x[4]    
 BV BND1      x[5]    
 BV BND1      x[6]    
 BV BND1      x[7]    
 BV BND1      x[8]    
 BV BND1      x[9]    
 BV BND1      x[10]   
 BV BND1      x[11]   
 BV BND1      x[12]   
 BV BND1      x[13]   
 BV BND1      x[14]   
 BV BND1      x[15]   
 BV BND1      x[16]   
 BV BND1      x[17]   
 BV BND1      x[18]   
 BV BND1      x[19]   
 BV BND1      x[20]   
ENDATA
